60

 0   1   2   3   1   2   3   4   2   3   4   5   3   4   5   6   4   5   6   7   5   6   7   8   6   7   8   9   7   8   9  10   8   9  10  11   9  10  11  12  10  11  12  13  11  12  13  14  12  13  14  15  13  14  15  16  14  15  16  17  
 1   0   1   2   2   1   2   3   3   2   3   4   4   3   4   5   5   4   5   6   6   5   6   7   7   6   7   8   8   7   8   9   9   8   9  10  10   9  10  11  11  10  11  12  12  11  12  13  13  12  13  14  14  13  14  15  15  14  15  16  
 2   1   0   1   3   2   1   2   4   3   2   3   5   4   3   4   6   5   4   5   7   6   5   6   8   7   6   7   9   8   7   8  10   9   8   9  11  10   9  10  12  11  10  11  13  12  11  12  14  13  12  13  15  14  13  14  16  15  14  15  
 3   2   1   0   4   3   2   1   5   4   3   2   6   5   4   3   7   6   5   4   8   7   6   5   9   8   7   6  10   9   8   7  11  10   9   8  12  11  10   9  13  12  11  10  14  13  12  11  15  14  13  12  16  15  14  13  17  16  15  14  
 1   2   3   4   0   1   2   3   1   2   3   4   2   3   4   5   3   4   5   6   4   5   6   7   5   6   7   8   6   7   8   9   7   8   9  10   8   9  10  11   9  10  11  12  10  11  12  13  11  12  13  14  12  13  14  15  13  14  15  16  
 2   1   2   3   1   0   1   2   2   1   2   3   3   2   3   4   4   3   4   5   5   4   5   6   6   5   6   7   7   6   7   8   8   7   8   9   9   8   9  10  10   9  10  11  11  10  11  12  12  11  12  13  13  12  13  14  14  13  14  15  
 3   2   1   2   2   1   0   1   3   2   1   2   4   3   2   3   5   4   3   4   6   5   4   5   7   6   5   6   8   7   6   7   9   8   7   8  10   9   8   9  11  10   9  10  12  11  10  11  13  12  11  12  14  13  12  13  15  14  13  14  
 4   3   2   1   3   2   1   0   4   3   2   1   5   4   3   2   6   5   4   3   7   6   5   4   8   7   6   5   9   8   7   6  10   9   8   7  11  10   9   8  12  11  10   9  13  12  11  10  14  13  12  11  15  14  13  12  16  15  14  13  
 2   3   4   5   1   2   3   4   0   1   2   3   1   2   3   4   2   3   4   5   3   4   5   6   4   5   6   7   5   6   7   8   6   7   8   9   7   8   9  10   8   9  10  11   9  10  11  12  10  11  12  13  11  12  13  14  12  13  14  15  
 3   2   3   4   2   1   2   3   1   0   1   2   2   1   2   3   3   2   3   4   4   3   4   5   5   4   5   6   6   5   6   7   7   6   7   8   8   7   8   9   9   8   9  10  10   9  10  11  11  10  11  12  12  11  12  13  13  12  13  14  
 4   3   2   3   3   2   1   2   2   1   0   1   3   2   1   2   4   3   2   3   5   4   3   4   6   5   4   5   7   6   5   6   8   7   6   7   9   8   7   8  10   9   8   9  11  10   9  10  12  11  10  11  13  12  11  12  14  13  12  13  
 5   4   3   2   4   3   2   1   3   2   1   0   4   3   2   1   5   4   3   2   6   5   4   3   7   6   5   4   8   7   6   5   9   8   7   6  10   9   8   7  11  10   9   8  12  11  10   9  13  12  11  10  14  13  12  11  15  14  13  12  
 3   4   5   6   2   3   4   5   1   2   3   4   0   1   2   3   1   2   3   4   2   3   4   5   3   4   5   6   4   5   6   7   5   6   7   8   6   7   8   9   7   8   9  10   8   9  10  11   9  10  11  12  10  11  12  13  11  12  13  14  
 4   3   4   5   3   2   3   4   2   1   2   3   1   0   1   2   2   1   2   3   3   2   3   4   4   3   4   5   5   4   5   6   6   5   6   7   7   6   7   8   8   7   8   9   9   8   9  10  10   9  10  11  11  10  11  12  12  11  12  13  
 5   4   3   4   4   3   2   3   3   2   1   2   2   1   0   1   3   2   1   2   4   3   2   3   5   4   3   4   6   5   4   5   7   6   5   6   8   7   6   7   9   8   7   8  10   9   8   9  11  10   9  10  12  11  10  11  13  12  11  12  
 6   5   4   3   5   4   3   2   4   3   2   1   3   2   1   0   4   3   2   1   5   4   3   2   6   5   4   3   7   6   5   4   8   7   6   5   9   8   7   6  10   9   8   7  11  10   9   8  12  11  10   9  13  12  11  10  14  13  12  11  
 4   5   6   7   3   4   5   6   2   3   4   5   1   2   3   4   0   1   2   3   1   2   3   4   2   3   4   5   3   4   5   6   4   5   6   7   5   6   7   8   6   7   8   9   7   8   9  10   8   9  10  11   9  10  11  12  10  11  12  13  
 5   4   5   6   4   3   4   5   3   2   3   4   2   1   2   3   1   0   1   2   2   1   2   3   3   2   3   4   4   3   4   5   5   4   5   6   6   5   6   7   7   6   7   8   8   7   8   9   9   8   9  10  10   9  10  11  11  10  11  12  
 6   5   4   5   5   4   3   4   4   3   2   3   3   2   1   2   2   1   0   1   3   2   1   2   4   3   2   3   5   4   3   4   6   5   4   5   7   6   5   6   8   7   6   7   9   8   7   8  10   9   8   9  11  10   9  10  12  11  10  11  
 7   6   5   4   6   5   4   3   5   4   3   2   4   3   2   1   3   2   1   0   4   3   2   1   5   4   3   2   6   5   4   3   7   6   5   4   8   7   6   5   9   8   7   6  10   9   8   7  11  10   9   8  12  11  10   9  13  12  11  10  
 5   6   7   8   4   5   6   7   3   4   5   6   2   3   4   5   1   2   3   4   0   1   2   3   1   2   3   4   2   3   4   5   3   4   5   6   4   5   6   7   5   6   7   8   6   7   8   9   7   8   9  10   8   9  10  11   9  10  11  12  
 6   5   6   7   5   4   5   6   4   3   4   5   3   2   3   4   2   1   2   3   1   0   1   2   2   1   2   3   3   2   3   4   4   3   4   5   5   4   5   6   6   5   6   7   7   6   7   8   8   7   8   9   9   8   9  10  10   9  10  11  
 7   6   5   6   6   5   4   5   5   4   3   4   4   3   2   3   3   2   1   2   2   1   0   1   3   2   1   2   4   3   2   3   5   4   3   4   6   5   4   5   7   6   5   6   8   7   6   7   9   8   7   8  10   9   8   9  11  10   9  10  
 8   7   6   5   7   6   5   4   6   5   4   3   5   4   3   2   4   3   2   1   3   2   1   0   4   3   2   1   5   4   3   2   6   5   4   3   7   6   5   4   8   7   6   5   9   8   7   6  10   9   8   7  11  10   9   8  12  11  10   9  
 6   7   8   9   5   6   7   8   4   5   6   7   3   4   5   6   2   3   4   5   1   2   3   4   0   1   2   3   1   2   3   4   2   3   4   5   3   4   5   6   4   5   6   7   5   6   7   8   6   7   8   9   7   8   9  10   8   9  10  11  
 7   6   7   8   6   5   6   7   5   4   5   6   4   3   4   5   3   2   3   4   2   1   2   3   1   0   1   2   2   1   2   3   3   2   3   4   4   3   4   5   5   4   5   6   6   5   6   7   7   6   7   8   8   7   8   9   9   8   9  10  
 8   7   6   7   7   6   5   6   6   5   4   5   5   4   3   4   4   3   2   3   3   2   1   2   2   1   0   1   3   2   1   2   4   3   2   3   5   4   3   4   6   5   4   5   7   6   5   6   8   7   6   7   9   8   7   8  10   9   8   9  
 9   8   7   6   8   7   6   5   7   6   5   4   6   5   4   3   5   4   3   2   4   3   2   1   3   2   1   0   4   3   2   1   5   4   3   2   6   5   4   3   7   6   5   4   8   7   6   5   9   8   7   6  10   9   8   7  11  10   9   8  
 7   8   9  10   6   7   8   9   5   6   7   8   4   5   6   7   3   4   5   6   2   3   4   5   1   2   3   4   0   1   2   3   1   2   3   4   2   3   4   5   3   4   5   6   4   5   6   7   5   6   7   8   6   7   8   9   7   8   9  10  
 8   7   8   9   7   6   7   8   6   5   6   7   5   4   5   6   4   3   4   5   3   2   3   4   2   1   2   3   1   0   1   2   2   1   2   3   3   2   3   4   4   3   4   5   5   4   5   6   6   5   6   7   7   6   7   8   8   7   8   9  
 9   8   7   8   8   7   6   7   7   6   5   6   6   5   4   5   5   4   3   4   4   3   2   3   3   2   1   2   2   1   0   1   3   2   1   2   4   3   2   3   5   4   3   4   6   5   4   5   7   6   5   6   8   7   6   7   9   8   7   8  
10   9   8   7   9   8   7   6   8   7   6   5   7   6   5   4   6   5   4   3   5   4   3   2   4   3   2   1   3   2   1   0   4   3   2   1   5   4   3   2   6   5   4   3   7   6   5   4   8   7   6   5   9   8   7   6  10   9   8   7  
 8   9  10  11   7   8   9  10   6   7   8   9   5   6   7   8   4   5   6   7   3   4   5   6   2   3   4   5   1   2   3   4   0   1   2   3   1   2   3   4   2   3   4   5   3   4   5   6   4   5   6   7   5   6   7   8   6   7   8   9  
 9   8   9  10   8   7   8   9   7   6   7   8   6   5   6   7   5   4   5   6   4   3   4   5   3   2   3   4   2   1   2   3   1   0   1   2   2   1   2   3   3   2   3   4   4   3   4   5   5   4   5   6   6   5   6   7   7   6   7   8  
10   9   8   9   9   8   7   8   8   7   6   7   7   6   5   6   6   5   4   5   5   4   3   4   4   3   2   3   3   2   1   2   2   1   0   1   3   2   1   2   4   3   2   3   5   4   3   4   6   5   4   5   7   6   5   6   8   7   6   7  
11  10   9   8  10   9   8   7   9   8   7   6   8   7   6   5   7   6   5   4   6   5   4   3   5   4   3   2   4   3   2   1   3   2   1   0   4   3   2   1   5   4   3   2   6   5   4   3   7   6   5   4   8   7   6   5   9   8   7   6  
 9  10  11  12   8   9  10  11   7   8   9  10   6   7   8   9   5   6   7   8   4   5   6   7   3   4   5   6   2   3   4   5   1   2   3   4   0   1   2   3   1   2   3   4   2   3   4   5   3   4   5   6   4   5   6   7   5   6   7   8  
10   9  10  11   9   8   9  10   8   7   8   9   7   6   7   8   6   5   6   7   5   4   5   6   4   3   4   5   3   2   3   4   2   1   2   3   1   0   1   2   2   1   2   3   3   2   3   4   4   3   4   5   5   4   5   6   6   5   6   7  
11  10   9  10  10   9   8   9   9   8   7   8   8   7   6   7   7   6   5   6   6   5   4   5   5   4   3   4   4   3   2   3   3   2   1   2   2   1   0   1   3   2   1   2   4   3   2   3   5   4   3   4   6   5   4   5   7   6   5   6  
12  11  10   9  11  10   9   8  10   9   8   7   9   8   7   6   8   7   6   5   7   6   5   4   6   5   4   3   5   4   3   2   4   3   2   1   3   2   1   0   4   3   2   1   5   4   3   2   6   5   4   3   7   6   5   4   8   7   6   5  
10  11  12  13   9  10  11  12   8   9  10  11   7   8   9  10   6   7   8   9   5   6   7   8   4   5   6   7   3   4   5   6   2   3   4   5   1   2   3   4   0   1   2   3   1   2   3   4   2   3   4   5   3   4   5   6   4   5   6   7  
11  10  11  12  10   9  10  11   9   8   9  10   8   7   8   9   7   6   7   8   6   5   6   7   5   4   5   6   4   3   4   5   3   2   3   4   2   1   2   3   1   0   1   2   2   1   2   3   3   2   3   4   4   3   4   5   5   4   5   6  
12  11  10  11  11  10   9  10  10   9   8   9   9   8   7   8   8   7   6   7   7   6   5   6   6   5   4   5   5   4   3   4   4   3   2   3   3   2   1   2   2   1   0   1   3   2   1   2   4   3   2   3   5   4   3   4   6   5   4   5  
13  12  11  10  12  11  10   9  11  10   9   8  10   9   8   7   9   8   7   6   8   7   6   5   7   6   5   4   6   5   4   3   5   4   3   2   4   3   2   1   3   2   1   0   4   3   2   1   5   4   3   2   6   5   4   3   7   6   5   4  
11  12  13  14  10  11  12  13   9  10  11  12   8   9  10  11   7   8   9  10   6   7   8   9   5   6   7   8   4   5   6   7   3   4   5   6   2   3   4   5   1   2   3   4   0   1   2   3   1   2   3   4   2   3   4   5   3   4   5   6  
12  11  12  13  11  10  11  12  10   9  10  11   9   8   9  10   8   7   8   9   7   6   7   8   6   5   6   7   5   4   5   6   4   3   4   5   3   2   3   4   2   1   2   3   1   0   1   2   2   1   2   3   3   2   3   4   4   3   4   5  
13  12  11  12  12  11  10  11  11  10   9  10  10   9   8   9   9   8   7   8   8   7   6   7   7   6   5   6   6   5   4   5   5   4   3   4   4   3   2   3   3   2   1   2   2   1   0   1   3   2   1   2   4   3   2   3   5   4   3   4  
14  13  12  11  13  12  11  10  12  11  10   9  11  10   9   8  10   9   8   7   9   8   7   6   8   7   6   5   7   6   5   4   6   5   4   3   5   4   3   2   4   3   2   1   3   2   1   0   4   3   2   1   5   4   3   2   6   5   4   3  
12  13  14  15  11  12  13  14  10  11  12  13   9  10  11  12   8   9  10  11   7   8   9  10   6   7   8   9   5   6   7   8   4   5   6   7   3   4   5   6   2   3   4   5   1   2   3   4   0   1   2   3   1   2   3   4   2   3   4   5  
13  12  13  14  12  11  12  13  11  10  11  12  10   9  10  11   9   8   9  10   8   7   8   9   7   6   7   8   6   5   6   7   5   4   5   6   4   3   4   5   3   2   3   4   2   1   2   3   1   0   1   2   2   1   2   3   3   2   3   4  
14  13  12  13  13  12  11  12  12  11  10  11  11  10   9  10  10   9   8   9   9   8   7   8   8   7   6   7   7   6   5   6   6   5   4   5   5   4   3   4   4   3   2   3   3   2   1   2   2   1   0   1   3   2   1   2   4   3   2   3  
15  14  13  12  14  13  12  11  13  12  11  10  12  11  10   9  11  10   9   8  10   9   8   7   9   8   7   6   8   7   6   5   7   6   5   4   6   5   4   3   5   4   3   2   4   3   2   1   3   2   1   0   4   3   2   1   5   4   3   2  
13  14  15  16  12  13  14  15  11  12  13  14  10  11  12  13   9  10  11  12   8   9  10  11   7   8   9  10   6   7   8   9   5   6   7   8   4   5   6   7   3   4   5   6   2   3   4   5   1   2   3   4   0   1   2   3   1   2   3   4  
14  13  14  15  13  12  13  14  12  11  12  13  11  10  11  12  10   9  10  11   9   8   9  10   8   7   8   9   7   6   7   8   6   5   6   7   5   4   5   6   4   3   4   5   3   2   3   4   2   1   2   3   1   0   1   2   2   1   2   3  
15  14  13  14  14  13  12  13  13  12  11  12  12  11  10  11  11  10   9  10  10   9   8   9   9   8   7   8   8   7   6   7   7   6   5   6   6   5   4   5   5   4   3   4   4   3   2   3   3   2   1   2   2   1   0   1   3   2   1   2  
16  15  14  13  15  14  13  12  14  13  12  11  13  12  11  10  12  11  10   9  11  10   9   8  10   9   8   7   9   8   7   6   8   7   6   5   7   6   5   4   6   5   4   3   5   4   3   2   4   3   2   1   3   2   1   0   4   3   2   1  
14  15  16  17  13  14  15  16  12  13  14  15  11  12  13  14  10  11  12  13   9  10  11  12   8   9  10  11   7   8   9  10   6   7   8   9   5   6   7   8   4   5   6   7   3   4   5   6   2   3   4   5   1   2   3   4   0   1   2   3  
15  14  15  16  14  13  14  15  13  12  13  14  12  11  12  13  11  10  11  12  10   9  10  11   9   8   9  10   8   7   8   9   7   6   7   8   6   5   6   7   5   4   5   6   4   3   4   5   3   2   3   4   2   1   2   3   1   0   1   2  
16  15  14  15  15  14  13  14  14  13  12  13  13  12  11  12  12  11  10  11  11  10   9  10  10   9   8   9   9   8   7   8   8   7   6   7   7   6   5   6   6   5   4   5   5   4   3   4   4   3   2   3   3   2   1   2   2   1   0   1  
17  16  15  14  16  15  14  13  15  14  13  12  14  13  12  11  13  12  11  10  12  11  10   9  11  10   9   8  10   9   8   7   9   8   7   6   8   7   6   5   7   6   5   4   6   5   4   3   5   4   3   2   4   3   2   1   3   2   1   0  

 0   0   0  90   0   1   1   0   1   1   0   1   0   0   0   3   1   1   1  33   0  88   0   0  80  19   4   1   1   1   1   0   0   3   1   1   0   1   1   0   0   1   4   1  29  56   0  11  28   0  16   9  86   0   1   1   1  62   1  21  
 0   0   1   1  47   1   0   0   1  28  71   0   3   0  33   0   1   1   1   0  38   0   1  75   2  59   1   0   0   1  39   1  32   6   1   1   0   0   1  75  15   1   0  27   7   0  28   1   1   9   3   0   8   0  21   0   0  29  19   0  
17   0   0   3   1   0   1  17  51   0  76   1   1   0   1   4  84   0   1   0   1   0   1   1   1   1   0   0   1   1  17   0   0   1   0   0   1   1   1   2  13   3   0   6   0   1   1   0   1  25  40   6   1   1  60  69   1   0   0   0  
 0   8   0   0   0   8  68   0   4  24   0   1   0  26   1   1  35   1   0   1   0   1   0   0   0  35   1   0  63   0  43   1  26   2   0  22   1   0   0  28   1   7   1   0   1   5   1   1   1   1   0   0   0   0   0   0   1   0   0   0  
 1   0   1   1   0  27   1   0   1   0   0   0  74   0  18   1   0   1   0   1   0   0  30   0  30   1   4  96   1   0   8   1   0   1   1   1   1   1   0   3  38  56   1   1  68   0   0  60   1   0   1   1  27   1   0  91   1   0   0  15  
37   1  89  35  15   0   1   0   1   1   0   2   0   0   1   1   1   1   3   1  28   0  10   1   1   0   1   6   1   1   0  22   5  34   1   1  16   3   3   3   0   0   2   0   0  26   1   1   1   1   0   0   1  82   1   0  14  65   0   0  
 0   0   1   0   1   0   0   4   0   1   7   0   0   0   1   1   1   0   0  42   0   0  20   1  28   0  12  18   1  33   0  71  42   1   1   0   1   0  52   0   3   0   3   9  44   0   0  51   1   0   0  13   0  42   0   1  27   0   4  33  
 0   1   9   1   0   0   1   0  18   1  51   1   1   2   1   2  14  97   1   1   1   1   0  43   0   4   0  19   2   1  91   1   1  26   2   0   0   4   0   0   0   0   1  23   0   0  78   6   0   0   0   1   1   1   1   1   1   1   1   1  
 1  71   0   1   1   1  24   0   0   2   0   1   0  16   0   0   0   0   1   0   1   0  27   0   1   4  54   1   0   1   1   1   1   0   0   0   1   1   1   0   1   1   1   0   2   1   0  58  47   0  48   8   1  11   0  68   0  24   1  57  
64   0   1  72   0   0   0   0   0   0   0   1   1   0   0   0   7   0   3   1   1   1  63   1   0   1   0   1   0   1   0   1   0   0   1   0   1   0   0  26  34   0   0   5   4   0   1   0   0   1   1  94   0   0   1   0   0   0   0   0  
 0   0   1  11   2   0   1   0  52   2   0  51   0  91   0  20   0   0  13  49   0   1   0   1   0   0   1   0   1   0   7   8  20   5   0   0   4   0  47   0   0  40   1  17   1   0   0  14  20  78   0  99   0   1   6   1   6   9   1   1  
 1   0   0   1  80   1   0   0   0   1   0   0   1  53   1  55   5   1   0   1   0  25  27   0   1   1   1   1   0  20  45   0   0  20   0   1  64   2   1   0  46   1   1  37   0  10   1  77  27   1  66  12   1   4   1   0   1   8  36   1  
57   8  50   0   1   3  21   6   0   1   1   1   0   0   0  32   0   1  17  51   0   1   3   0   1  22   1   1   0  88  15   4   1   1   0  47  44   0   1   1   0   1   0   0   3   0   0   1   1   1   1   0   0   0  31   1   0   0   1   0  
 0   1  36   1   0   0   0  59  66  15   0   6   0   0   2   1   6   1  17   1   0   1   0   0   1   0   4  93   1   1   0   8   0   0   1   0  71   5  22  39   3   6   0   0  14   1   0   0   1   1  25   2   0  36  64  10   0   0   0   8  
48   0  75   0   4   0  39  14  22   1   1   1   1   0   0   9   0   0   1   1   1   0   0  29   2   0   0  71   0   0  98   1   1   1  14   0   0   1   0   1   0  18  31   4   1  70   0  18   1   1   0  24  25   0   0   1   1   0  27  98  
 1   0   0   0   0  20   1   0   1   2   0  53   1   5  34   0   0   7  88   1   1   1   0   0   0   1  17   1   0   4   0   0   0  37   0   0   1   1   0   1   1   1   0   0   0   1   0  85   1   1   1   2   0   0   1   1  82   0   8   1  
 0   9   1  10   1   5   5   4   0  47   1  77  41   0  23   0   0   1   0  50   1   1   0   1   0   4   2  31  46   1   1   1   4  29   1   0   1  22   2  97   1   7  73  43   1   0   0  80   0   0  86   3   0  16   1   0   1   1  75   0  
 1  16   1   0   1   1   0   0  10   1   0   0   3   0   1   0   1   0  25   1  62  20   1   9   0   0  59   1   0  93   0   9   1   0   6   1   1   0   1   1   0  36   2   0   1  10   0   0   1  37  33   0   0   1   0  53   0   6   0   1  
 1   1   1   1   1   1  99   1   0   1   5  11   1   1   1   9  10  11   0   0   0   0  15   1   1   1   1   0  36   2   1   0  16   0  73   1   1   2   1   1  35  40   0   1  54  15   1   0   0  17   0   1   0   0   0  76   0   0   1  19  
 0   1   2   1   0  42   1   0   1  40  76   1   0   1  10  36   1   1   1   0   9   0   0  73  38   1   5   0  81   0   1  48   3   9   0  12   2   0   3   1   0   1   1   1  67   4   0   1   1   0   1   0   1   0   0  23   1  93  75   0  
 1   0   0   0   0   1  11  20  31   1   8   1   1   0   0   1   1  13   0   1   0   1   0   0  18   1  79   0   1   1   0  31   1   0  10   1   0   0   1   1   0  31   1   2   1   0  78  50  32   0   0   0  65  96   0  41   1  25   1   8  
 1   0   0  82   1   0   0   0  18   1   0   0  16   1   1   5   3   0   1   2   1   0   0   1   0   0   0  14   0   1   0   0  32   0  17  47   1   1   1   0  88   1   0   0  71   1   0  13   0   0   0   2   1   0   1   1   3  52  24   6  
 1   1   1   0   0   0   0   8   0   0   0   3   0   2   1   0  71   1   7   0   4   1   0  99   0  26  24   1   1   0  68  73   0   0  66  99  35  19   1   0  78  22   1  61   0   0   1   1  47   1   1  44   1   2  40  60   1   1   0  86  
 1  80   3   0  36   1   0  29   0  17   1   1   0   4   8   0   0   0   0   1  41   0   0   0   1   0  61   1   0  14  64   1   0   1   0   8  58   1  17   1   1   8   0   1  69   0   0  63   0   8  18  21   1  27  30   0  17   2   6   2  
 1  49   3  54   0  19   1   1   0   0   0   0  18   1   1   1   0   0   6   1   0   0   1  92   0  39   0   0  12  11  42   0   1   1   0   0   1  63   5   0   0   0  14   0   1   8   1   3   1   4   0   1  43  35   1   1   0   0  17  17  
 1  32   1  41   0  23   0  12  62   1  31   1   0  71   1   0   1   0   1  35  46   0   1   1  14   0   1   1   1  76   9   1   0   1   1   1   3   1   1   1   1   1  26   3   1   1  45   1   0   2   0   1   8   0  19   0   0   1  47   0  
 0   1   1   1   1   1   1   1  27   0   1  42   1   0   0   1   0   0   1  36  11  64  17  15   1   1   0   0   0   1   1   0   3   1  69   1  23   1   0   1   0   1   0  97   0  53   0   1   1   1   7   1   0  54   0   1   1   1   1   0  
 6  74   1   0   1   1  11   1   0   1   1   1  99  25   0   3   1  61   1   3   0   0   1  11   0   1   0   0   1  94  75   1  61  33   0   1   1   1   2   0   3   0  16   1   1   1   1   2  28   0   1  34   1   0   1   4   0   6   1   4  
 0  30  96   1  68   0   6   1  39   0   1   0   0   1   1   1   0   1  11   0   1   1  57   0   1   0   0   1   0   1   1   1   2   0  40   0   8   6   3  17   0  49   0   1   1   1   0  26   0   1   0   0  92   1   0  13   0   1   0  15  
 1   1   1   1   1   1  15   0   1   1   1   0   2   1   0   0   1   1   0   0   0  17   0   0   1   1   0   1  22   0   3   1   0   0   9  67  91  20  15   1   8   0   1   0  17   2   1   0   1   1   1   0   0   0  39  90   2   1   1   0  
 0   1   5   1   1   1  17   1   1   0   0  72   1   0   1   1   1   0   0   0   7  31   0  11  15   0   1  29   0   0   0  12   1   0   0   0   1   1   1  61   0   0   0   1   0   1   4   0   2  72   1   1   1   0  84  15   3   1   2   0  
 1  24   0   4  42   1   8   1   0   0   1   1   1  29   1   0   1   0   1   1   2   1  12   1   0  54  11   0   1   1   1   0   1   0   1   1   1   1   2   6   1   1   0   1  23   1   1   0   0   0   2  27   1   0   1  10   1   0   0   0  
 1   0   1  29   5   1  25   0   0   1   1   0   1  56   0   1   1  43  12   0   0   0  25   1   1   1  26   7   1   1   0   0   0  83   0   0  85  24  38   0   1   0   0   3   5   0   0   0   0   1   1   1   3  77   1   0   1   0   0   1  
 1   5  46   1   1   1  87   1   1   1   0   0   0  21   7   1   0   1   0   1   0  15   1  68  68  16   1   0   0   0   1   1   1   0   0   0   1   0   1   1  39   1   0   2   5  31   1   0   0   1   0  37   0  90   0   0   1   0   1   0  
 0   1   0   1   0   1   1   0   1   1  43   0   0   1  36   1   0   0   1   0   1  82   0   3   0   1   3  21   0   3  24   3  24   0   0   1   7   2  41   7  81   1   0   1   1   1   3   0   8   8   0   0   1  16   0  25   1  89   1   1  
 1  43   2   3   1   1   0   1   0   1   1  10   1   1   0   0   1   1  34   1   1   1   1  12  22   0   1   1   1   3   0   0   1   1   6   0   1  41  36  54   0  22   1  26   0   2   0   0   1  81   0   2   1   1   1  35   4   0   1   1  
 1   2   1   1   1   1   1   0   1   1  13   1   0   1   1  55   0   1   3   0   1  87  11  13   1   1   1   1   1  20   2   1  19   1   0   0   0   0   1   1   3   1   1   7   1   1  25  75   8  97   1   1   1   0   1  36   1   0   1  31  
 1   1   1   1  10   4   9  27   1   1  94   0   0  96   0   0   1  48   0  56  32   0   1   2   6  38  44  35  76  25   1  32   1   1   0   1   1   0  28   1   0  33   1   0   0   0   1   1   1   1   3   1   0   5   1   1   0   1   3   0  
 5   1   0  12   0   1   0  57   1   0  16   4   0   0   1  78   1   1   0   1   0  96   2   1   0   1   0   0  15   1  42   7   1   1   1   0   1   1   0  21   1   1   1  41   6   1   6   0   1   0   1   0  47   0  50   1   1   1   0   1  
 0   1  20   0   1   7   1   1   0   0   0   0   1   1  37   1   1   0   7   1  22   1   1  26   2  29   0   0   0   0   2   0   1   1  16   1  59   1   0   0   1   0   1   0   1  10   1  25  16   1   7   6  88   0   1  80  10   1  14   1  
 1  53   1   0   1   2   1   0   0   1   0   0   4   1   1   0  46   1   0  33  78   2   0  41   0  75   1   1   8   0   0  55   0   0   1  34   5   1   1   0   0  66   0   0   1   1   1   6   0   1  40   0   1  17  77   0   1   0   1   1  
 0   1   0  27   0  98   0   1   1   0   1   1   1   5  31   1  34   8   1   5   0  13   1   1   0   0   1   1   1   1   1  54   0   1  30   0   1   0   2   0   1   0   0   0   1   1   2   1  66   1   0   1   1   1   1  18   1   0   0  85  
 1   0   1   2   7   1   0   1   1  60   0  80   0   1   0   1  59   0   1   1  23   1   1   0   1   6   1   0   0   0   1   0   0   1   5   0   1   0  66   0  41   1   0   0   0   1   1   1   1  19   0   6  23   1  57   0   1   4   1   1  
 0   1   1   5  81   1   6   1   0   0   1   0   0  76   1   0  76   0   0  85   1   1   0  14   0   0   1   1   1  19   1   2   0   2  30   1   0   1   1   1   0  72   0   0   1   6   1   0   0   0   1   1   1   0   1   1   0   1   1  79  
 1  89   0  28  45   1   0   0   0  25   1   1   1   0  16  13   0   0   1   0   0   0  61   6   3   1   1  26   0  25   1   1   0   1   1   1   0   3   1   1  56  28  10   0   0  63  22   1   4   0   0   5   3   1   1   1   1   0   1  91  
 0   0   2   0   1   1   1   0   0   1  23   0   1   1   4   1   2  90   1  48   1   1   0   0   1  83   1   1   1   0  36   1  28   1   0   1   0   2   1  62   0   1   1  54   1   0  21   0   1  59   0   1  65   1   1   1   0   0   0   3  
 0   3   1   0   1   0   0   7   1   1   1   0   0   0   0   1   0   0   0   0   1   1  63   1   1   1   1  63   0   0   1   0   1  14   0  10  86   0   1  11   6   2   1   1  60  74   0   1  87   0   1   1   0   0   0   1   0   0   0   1  
 1   0   1   8   0   1   8  53   0   0   7  56  11   0  54   1   0   1   1  19  39   1   0   1  50   1   1   0   1   6   0   0   1   1   1   0   0  85  65   0   1   1  14   0   1   0   0   0   1  47  45   0  48   1   0   0  29   7   1   1  
 2  75   1  37   0   1   1   3   0   0   4   0  54   1   9  29   1   0   0   0  22   0   0   1  14  16  40  62  72   0  99   1  78  18   3  17   0   1   1   1  99   0   0  50   0   1   0  17   0   1   1  45   0   0  38   1   0   0  24   1  
 1   1   0   1  10   1   1  20   1  34  86   1   0   0   0   0   0   0   0   0   1   3   0   1   1   0   0   1   1   0  73   0   1  39   1  64   1   5   0   0  12   0   1   6   1   4  10  37  21   0  78   1   1  13  58  48   4  23  97   4  
 1   1  19   0   1   0   0   0   4   3   0  23   1  23   1   0   1   5  70   1   0   1   1   1   0   1   1   0   1   6   1   1   0   1   1   1   1   1  80   0   0   0  51  52   0  40   1  22   1   5   0  28   1   1  29   0  45  20   1   0  
 1   1   1   7  34   0   1   1   0   2   0   1   1   0   1  80   1   4   0   0  12   0   1   1   1  16   1   1  62   1   1   1   1   4  35   1   1   1   0   1  35   0   0   1   0  76   7   1   0   1   0   0   0  31   2   9   1   1  14   1  
 0   0   1   1   2   1   1   0  45   0   0   1  76   1   1  10   1   0  74  45   0   3   7  17   8  10   1   8   0   1  10   0  65   0   1  48   1   7   3   1   1  15   1   1   1   0   0   0   1   0   1   1   0  20   2  28   2   0   1  41  
 1   1  45   0  28   0   0   1  79   1   0   0   1   1   0  46   0   1   1   0   0   1   1   1   1   0   1   2  76   0   0   0   1  14  19   0   1   0   0   0   0   1   1   1   1   1   1  74   0   0   0   0  32   0   1   1   0   1   1   0  
 3  13   0  18   0  22   1  35  35   1   1   1   0   1  60   0   0   0   1   4   0   0  39   9   0   7   0   2  24   0   1   0   1   1   2   1   1   0   0  96   1   1   0  34   0  16   1  53   0   1  46   1  24   1   0   1   0   0   1  20  
98  46  48   0   0   1  27  17   1  27  25   1  40  29   1   1   2  65   1  23   6   1   1   1   1   1  10   1  16   0  52   1   1   1   1  16   0   0  92   1   0   1  31   0   0   1   1   0   1   1  61   5   0  76   0   0  18   0   0  23  
 0   1  31   0   1  12   1  19   1   1   1   1   0   1  89  74   1   4   7   0   1   0  54   1  29  46   1   0  21   0   8   0   1  36   2   0   3   0   0   2  26   1   1   1   1  27   0  16   1   0   1  31   0   7   1   3   0  46   0   0  
69   1   6  53   1   1   1   0   1  47   1   4   1   0   0   1   1  16   1  15   1   1   1   1   0   0   1  38   1   1  54   0   0  20   0  28   1   0   0   0  69   3   0   0  36   4   5   0  14  19   0  68   0   1   1  19   9   0  12   0  
 0   1   0   0  51   1   1   1   0   1  15   1  48   1   1   1   1   1  28  37   1  60  80   0   1   1   0  18   1   1   0   1   0   1   1   0   0  78  19  17   0  12   1   0  48   0   1  58   8  26   3   0   1   1   0  68   1   1   0  18  
 1   1  75   1   6   0   1   0   1   5  71   4   0   0  52  42   0  68   0   1  64   0   1  22   0   1   1   0   0   4   1   1   1   1   1   1   0  93   0   1  89   1   0   3   0   1   0   0   1   1   1   1   1  33  20   1   0   0   1   0  
